CMD:
./solvers/bin/cadical --plain --no-reduce -t 1600 ./data/cnfs//qspiflash_dualflexpress_divthree-p085/qspiflash_dualflexpress_divthree-p085.58.cnf

c --- [ banner ] -------------------------------------------------------------
c 
c CaDiCaL SAT Solver
c Copyright (c) 2016-2024
c A. Biere, M. Fleury, N. Froleyks, K. Fazekas, F. Pollitt, T. Faller
c JKU Linz, University of Freiburg, TU Wien
c 
c Version 2.1.3 5296d3d2a9bf48c154ab2acb5e44625776d821bf
c g++ (Gentoo 12.3.1_p20230526 p2) 12.3.1 20230526 -Wall -Wextra -O3 -DNDEBUG
c Sat Aug 9 07:26:21 PDT 2025 Linux cedar2.int.cedar.computecanada.ca 5.14.0-362.24.2.el9_3.x86_64 x86_64
c 
c --- [ limit ] --------------------------------------------------------------
c 
c setting time limit to 1600 seconds real time (due to '-t 1600')
c 
c --- [ parsing input ] ------------------------------------------------------
c 
c reading DIMACS file from './data/cnfs//qspiflash_dualflexpress_divthree-p085/qspiflash_dualflexpress_divthree-p085.58.cnf'
c opening file to read './data/cnfs//qspiflash_dualflexpress_divthree-p085/qspiflash_dualflexpress_divthree-p085.58.cnf'
c found 'p cnf 174326 508682' header
c parsed 508682 clauses in 0.08 seconds process time
c 
c --- [ options ] ------------------------------------------------------------
c 
c   --compact=false                (different from default 'true')
c   --decompose=false              (different from default 'true')
c   --deduplicate=false            (different from default 'true')
c   --elim=false                   (different from default 'true')
c   --probe=false                  (different from default 'true')
c   --reduce=false                 (different from default 'true')
c   --subsume=false                (different from default 'true')
c   --ternary=false                (different from default 'true')
c   --transred=false               (different from default 'true')
c   --vivify=false                 (different from default 'true')
c 
c --- [ solving ] ------------------------------------------------------------
c 
c time measured in process time since initialization
c 
c  seconds  reductions  redundant  irredundant
c         MB    restarts       trail       variables
c          level   conflicts       glue          remaining
c 
c *  0.08 80  0 0   0    0    0  0% 0 488014 160649 92%
c {  0.12 83  0 0   0    0    0  0% 0 488014 160649 92%
c i  0.12 83 15 0   0   11    6  9% 1 488014 160648 92%
c i  0.12 83 13 0   0   13    7  8% 1 488014 160475 92%
c i  0.14 83 22 0   0   20   13 13% 2 488014 160463 92%
c i  0.14 83 23 0   0   21   13 14% 2 488014 160453 92%
c i  0.18 84 79 0   0   50   38 19% 40 488014 160395 92%
c i  0.21 84 68 0   5  107   88 19% 24 488014 159994 92%
c }  0.28 84 52 0  10 1003  859 25% 9 488014 159994 92%
c [  0.28 84  0 0  10 1003  859  0% 0 488014 159994 92%
c O  0.31 84 1353 0  10 1004  860 96% 1 488014 159994 92%
c i  0.31 84 1348 0  10 1007  862 96% 1 488014 159990 92%
c ]  0.59 85 666 0  11 3004 2682 52% 7 488014 159990 92%
c {  0.59 85 52 0  11 3004 2682 25% 9 488014 159990 92%
c F  0.59 85 52 0  11 3005 2683 25% 9 488014 159990 92%
c i  0.76 85 67 0  14 4034 3574 29% 7 488014 159962 92%
c i  0.85 85 66 0  40 4926 4342 27% 6 488014 159940 92%
c i  0.88 86 64 0  45 5169 4559 27% 6 488014 159931 92%
c i  0.89 86 63 0  45 5282 4652 27% 6 488014 159923 92%
c i  0.94 86 60 0  47 5665 4983 26% 6 488014 159864 92%
c 
c  seconds  reductions  redundant  irredundant
c         MB    restarts       trail       variables
c          level   conflicts       glue          remaining
c 
c i  0.94 86 60 0  47 5667 4984 26% 6 488014 159855 92%
c i  0.94 86 60 0  47 5688 5000 26% 6 488014 159838 92%
c i  0.94 86 60 0  47 5691 5002 26% 6 488014 159823 92%
c i  0.95 86 59 0  47 5780 5080 25% 6 488014 159814 92%
c i  0.95 86 59 0  47 5817 5113 25% 6 488014 159805 92%
c #  0.98 86 58 0  53 6007 5288 25% 6 488014 159805 92%
c i  1.02 86 61 0  54 6204 5459 25% 6 488014 159761 92%
c i  1.06 86 62 0  69 6454 5672 26% 6 488014 159757 92%
c i  1.10 86 62 0  82 6875 6050 26% 6 488014 159750 92%
c i  1.10 86 62 0  82 6881 6054 26% 6 488014 159712 92%
c i  1.10 86 62 0  82 6885 6055 26% 6 488014 159672 92%
c }  1.12 86 62 0  92 7004 6158 26% 6 488014 159654 92%
c [  1.12 86 666 0  92 7004 6158 52% 7 488014 159654 92%
c i  1.26 86 455 0  93 7999 7062 44% 6 488014 159600 92%
c i  1.47 86 326 0  94 9320 8246 40% 7 488014 159596 92%
c i  1.47 86 324 0  94 9362 8277 40% 7 488014 159592 92%
c I  1.59 87 286 0  94 10008 8854 37% 8 488014 159592 92%
c i  1.87 87 241 0  95 11150 9797 34% 9 488014 159554 92%
c i  1.87 87 241 0  95 11154 9800 34% 9 488014 159533 92%
c i  1.87 87 240 0  95 11167 9808 34% 9 488014 159505 91%
c 
c  seconds   reductions   redundant  irredundant
c         MB     restarts        trail       variables
c           level    conflicts       glue          remaining
c 
c i  1.87 87 240 0  95 11191 9828 34% 9 488014 159504 91%
c i  1.91 87 237 0  95 11298 9915 34% 9 488014 159487 91%
c i  2.21 87 211 0  96 12282 10712 32% 10 488014 159486 91%
c i  2.95 88 170 0  97 14576 12558 30% 11 488014 159482 91%
c ]  3.09 88 165 0  97 15006 12935 30% 11 488014 159482 91%
c {  3.09 88 62 0  97 15006 12935 26% 6 488014 159482 91%
c B  3.09 88 62 0  99 15012 12940 26% 6 488014 159482 91%
c i  3.09 88 62 0  99 15012 12940 26% 6 488014 159478 91%
c i  3.09 88 62 0  99 15013 12940 26% 6 488014 159474 91%
c i  3.21 88 60 0 151 15412 13280 25% 6 488014 159470 91%
c i  3.31 88 57 0 189 15826 13623 25% 6 488014 159418 91%
c i  3.39 88 55 0 224 16155 13904 24% 6 488014 159378 91%
c i  3.65 88 52 0 345 16924 14589 24% 6 488014 159374 91%
c i  3.69 88 52 0 348 17116 14761 24% 6 488014 159370 91%
c i  4.06 89 49 0 439 18358 15862 24% 6 488014 159366 91%
c i  4.15 89 48 0 457 18617 16091 24% 6 488014 159362 91%
c i  4.56 89 46 0 538 19452 16826 24% 6 488014 159358 91%
c i  4.65 89 46 0 552 19718 17049 24% 6 488014 159318 91%
c i  4.80 89 46 0 592 20096 17358 24% 6 488014 159314 91%
c i  4.87 89 45 0 606 20254 17493 24% 6 488014 159310 91%
c 
c  seconds  reductions    redundant  irredundant
c         MB    restarts         trail       variables
c          level    conflicts        glue          remaining
c 
c W  5.29 90 44 0 630 21016 17606 24% 6 457268 159310 91%
c i  5.42 90 43 0 650 21447 17965 24% 6 457268 159106 91%
c i  5.43 90 43 0 650 21463 17976 24% 6 457268 159066 91%
c i  5.51 90 43 0 657 21725 18192 24% 6 457268 159062 91%
c i  5.55 90 42 0 657 21820 18275 24% 6 457268 159058 91%
c i  5.82 90 40 0 673 22651 18972 24% 6 457268 158863 91%
c i  5.87 90 40 0 679 22763 19075 24% 6 457268 155490 89%
c i  5.90 90 40 0 679 22851 19147 24% 6 457268 155440 89%
c i  5.90 90 40 0 679 22852 19147 24% 6 457268 155428 89%
c i  5.91 90 40 0 679 22858 19149 24% 6 457268 155422 89%
c }  5.95 90 40 0 679 22982 19236 24% 6 457268 154101 88%
c 0  5.95 90 40 0 679 22982 19236 24% 6 457268 154101 88%
c 
c --- [ result ] -------------------------------------------------------------
c 
s UNSATISFIABLE
c 
c --- [ run-time profiling ] -------------------------------------------------
c 
c process time taken by individual solving procedures
c (percentage relative to process time for solving)
c 
c         5.87  100.00% search
c         3.41   58.04% unstable
c         2.27   38.75% stable
c         0.15    2.49% walk
c         0.08    1.36% parse
c         0.04    0.72% lucky
c         0.00    0.00% simplify
c   =================================
c         5.87   98.65% solve
c 
c last line shows process time for solving
c (percentage relative to total process time)
c 
c --- [ statistics ] ---------------------------------------------------------
c 
c chronological:              8443        36.74 %  of conflicts
c conflicts:                 22982      3915.90    per second
c decisions:                 58893     10034.78    per second
c fixed:                     20191        11.58 %  of all variables
c learned:                   21813        94.91 %  per conflict
c learned_lits:             847852       100.00 %  learned literals
c minimized:                     0         0.00 %  learned literals
c shrunken:                 186959        22.05 %  learned literals
c minishrunken:             175569        20.71 %  learned literals
c otfs:                        222         0.97 %  of conflict
c propagations:           77533174        13.21 M  per second
c rephased:                      6      3830.33    interval
c restarts:                    679        33.85    interval
c stabilizing:                   2        43.52 %  of conflicts
c subsumed:                   1968         0.39 %  of all clauses
c strengthened:                221         0.04 %  of all clauses
c walked:                        1     22982.00    interval
c 
c seconds are measured in process time for solving
c 
c --- [ resources ] ----------------------------------------------------------
c 
c total process time since initialization:         5.95    seconds
c total real time since initialization:            5.97    seconds
c maximum resident set size of process:           91.95    MB
c 
c --- [ shutting down ] ------------------------------------------------------
c 
c exit 20
